p cnf 35 78
-13 -16 0
-6 -10 0
-6 -7 -8 0
-2 -6 -7 0
-11 -14 0
-5 -8 -12 0
-2 -19 0
-4 -21 -22 0
-4 -11 -24 0
-6 -12 -23 0
-5 -11 -12 0
-6 -11 -21 0
-4 -11 -31 0
-6 -22 -23 0
-6 -20 -23 0
-23 -27 -30 0
-26 -27 -29 0
-23 -27 -32 0
-4 -25 0
-4 -11 -23 -28 0
-8 -35 0
-8 -9 -15 0
-11 -13 -18 0
-8 -13 -33 0
-4 -23 -32 0
-6 -8 -32 0
-6 -11 -24 0
-23 -26 -32 0
-25 -26 -32 0
-13 -27 -29 0
-21 -27 0
-2 -6 -22 0
-1 -7 0
-8 -14 -27 0
-10 -14 -34 0
-10 -15 -27 0
-8 -14 -16 0
-23 -33 0
-9 -15 -21 0
-3 -10 -15 0
-10 -21 -33 0
-2 -10 -15 -16 0
-2 -7 -15 0
-2 -12 -32 0
-23 -32 -34 0
-2 -22 -32 0
-2 -25 -32 0
-26 -31 0
-14 -16 -26 0
-4 -16 -21 0
-4 -17 -29 0
-4 -12 -14 0
-2 -17 -29 0
-1 -22 -27 0
-1 -9 -22 0
-1 -16 -22 0
-3 -16 -21 0
-3 -21 -22 0
-6 -7 -13 0
-7 -13 -14 0
-13 -17 -31 0
-13 -17 -25 -32 0
-6 -12 -13 -17 0
-14 -19 -26 0
-18 -26 -29 0
-21 -26 -28 0
-21 -26 -30 0
-12 -20 -26 -29 0
-5 -12 -26 0
-12 -14 -26 -35 0
-12 -14 -26 -33 0
-17 -26 -29 0
-25 -26 -34 0
-9 -14 -26 0
-20 -24 -26 -29 0
-20 -23 -26 -29 0
-20 -22 -26 -29 0
-20 -25 -26 -29 0
